\ Model MaxExample
\ LP format - for model browsing. Use MPS format to capture full model detail.
Minimize
  30 f_0,0 + 114 f_0,1 + 120 f_0,2 + 34 f_1,0 + 90 f_1,1 + 74 f_1,2
   + 68 f_2,0 + 72 f_2,1 + 180 f_2,2 + 69 f_3,0 + 87 f_3,1 + 132 f_3,2
   + 25 f_4,0 + 34 f_4,1 + 36 f_5,0 + 27 f_6,0 + 43 f_6,1 + 86 f_7,0
   + 88 f_7,1 + 102 f_7,2 + 88 f_7,3 + 98 f_7,4 + 69 f_8,0 + 64 f_9,0
   + 68 f_10,0 + 88 f_10,1 + 25 f_11,0 + 39 f_11,1 + 34 f_11,2 + 44 f_11,3
   + 44 f_12,0 + 21 f_13,0 + 29 f_13,1 + 34 f_14,0 + 36 f_14,1 + 88 f_14,2
   + 102 f_14,3 + 76 f_14,4 + 13 f_15,0 + 42 f_16,0 + 52 f_16,1 + 19 f_17,0
   + 39 f_18,0 + 76 f_19,0 + 94 f_19,1 + 24 f_20,0 + 52 f_21,0 + 54 f_21,1
   + 106 f_21,2 + 120 f_21,3 + 94 f_21,4 + 34 f_22,0 + 30 f_23,0
   + 39 f_23,1 + 50 f_24,0 + 52 f_24,1 + 80 f_24,2 + 88 f_24,3 + 60 f_24,4
   + 168 f_25,0 + 212 f_25,1 + 184 f_25,2 + 180 f_25,3 + 188 f_25,4
   + 96 f_26,0 + 104 f_27,0 + 148 f_27,1 + 110 f_28,0 + 125 f_28,1
   + 150 f_28,2 + 115 f_28,3 + 140 f_28,4 + 30 f_29,0 + 66 f_29,1
   + 93 f_30,0 + 102 f_30,1 + 117 f_30,2 + 96 f_30,3 + 111 f_30,4
   + 30 f_31,0 + 38 f_31,1 + 152 f_32,0 + 160 f_32,1 + 69 f_33,0
   + 100 f_34,0 + 140 f_34,1 + 150 f_34,2 + 170 f_34,3 + 35 f_35,0
   + 63 f_36,0 + 78 f_36,1 + 69 f_36,2 + 88 f_37,0 + 100 f_37,1
   + 195 f_38,0 + 250 f_38,1 + 215 f_38,2 + 210 f_38,3 + 280 f_38,4
   + 84 f_39,0 + 0 s_0 + 0 s_1 + 0 s_2 + 0 s_3 + 0 s_4 + 0 s_5 + 0 s_6
   + 1000 s_7 + 0 s_8 + 0 s_9 + 0 s_10 + 0 s_11 + 0 s_12 + 0 s_13 + 0 s_14
   + 0 s_15 + 0 s_16 + 0 s_17 + 0 s_18 + 0 s_19 + 0 s_20 + 1000 s_21
   + 0 s_22 + 0 s_23 + 0 s_24 + 0 s_25 + 0 s_26 + 0 s_27 + 0 s_28 + 0 s_29
   + 1000 s_30 + 0 s_31 + 0 s_32 + 0 s_33 + 0 s_34 + 1000 s_35 + 1000 s_36
   + 1000 s_37 + 0 s_38 + 0 s_39 + 1000 s_40 + 0 s_41 + 1000 s_42 + 0 s_43
   + 0 s_44 + 0 s_45 + 0 s_46 + 1000 s_47 + 0 s_48 + 0 s_49 + 0 s_50
   + 0 s_51 + 0 s_52 + 1000 s_53 + 0 s_54 + 1000 s_55 + 0 s_56 + 0 s_57
   + 0 s_58 + 1000 s_59
Subject To
 R0: f_4,0 + f_6,1 + 2 f_7,1 + 2 f_14,2 + 2 f_14,3 + 2 f_21,2 + 2 f_21,3
   + 2 f_24,2 + 2 f_24,3 + 5 f_34,1 + 5 f_34,2 + 5 f_34,3 <= 5
 R1: 2 f_1,0 + 2 f_1,1 + 2 f_19,1 + 4 f_25,1 + 4 f_25,2 + 5 f_38,1
   + 5 f_38,2 <= 5
 R2: <= 2
 R3: 3 f_3,0 + f_4,1 <= 3
 R4: 2 f_5,0 <= 4
 R5: f_6,0 + 2 f_7,0 + 2 f_7,2 + 2 f_7,3 + 2 f_7,4 <= 8
 R6: 3 f_0,1 + 3 f_0,2 + 2 f_1,1 + 2 f_1,2 + 4 f_2,2 + 3 f_3,1 + 3 f_3,2
   <= 4
 R7: 4 f_2,0 - s_7 <= 2
 R8: 4 f_2,1 + f_4,0 + f_6,1 + 2 f_7,1 <= 2
 R9: 3 f_8,0 + 2 f_9,0 <= 8
 R10: <= 6
 R11: 4 f_2,1 + f_6,1 + 2 f_7,1 + 4 f_10,1 + f_11,1 + f_11,3 + f_13,1
   <= 10
 R12: f_11,2 + 2 f_12,0 + f_13,0 <= 10
 R13: 3 f_8,0 <= 8
 R14: 2 f_7,0 + 2 f_7,1 + 2 f_7,2 + 2 f_7,3 + 2 f_7,4 + 3 f_18,0 + 3 f_30,0
   + 3 f_30,1 + 3 f_30,2 + 3 f_30,3 + 3 f_30,4 + 3 f_39,0 <= 12
 R15: 2 f_14,2 + 2 f_16,0 + f_17,0 + 2 f_21,2 <= 5
 R16: 2 f_9,0 + f_15,0 <= 10
 R17: f_11,3 + f_13,1 + 2 f_14,3 + 2 f_16,1 + 2 f_19,0 + 2 f_21,3
   + 4 f_25,4 + 5 f_38,4 <= 5
 R18: <= 3
 R19: f_6,1 + f_11,1 + 2 f_14,4 + 2 f_19,1 + 2 f_21,4 + 2 f_22,0 + 2 f_29,1
   <= 5
 R20: f_20,0 <= 5
 R21: 3 f_3,2 + f_11,2 + f_13,0 + 2 f_14,2 + 2 f_16,0 + 2 f_21,2 + 4 f_25,0
   + 4 f_25,2 + 4 f_27,0 + 5 f_38,0 + 5 f_38,2 - s_21 <= 14
 R22: 4 f_25,1 + 4 f_25,3 + 4 f_27,1 + 5 f_38,1 + 5 f_38,3 <= 4
 R23: 2 f_12,0 + f_20,0 <= 8
 R24: f_17,0 <= 10
 R25: f_11,1 + 2 f_14,4 + 2 f_19,1 + 2 f_21,4 + 2 f_24,2 + 2 f_24,3
   + 2 f_24,4 <= 5
 R26: 4 f_25,0 + 4 f_25,1 + 4 f_25,2 + 4 f_25,3 + 4 f_27,0 + 4 f_27,1 <= 8
 R27: 4 f_37,1 + 5 f_38,1 + 5 f_38,4 <= 7
 R28: f_6,0 + 2 f_7,2 + 2 f_7,3 + 2 f_7,4 + 5 f_28,2 + 5 f_28,3 + 5 f_28,4
   + 2 f_29,0 + 3 f_30,2 + 3 f_30,3 + 3 f_30,4 <= 10
 R29: 3 f_3,1 + f_13,1 + 2 f_16,1 + 4 f_27,1 + 5 f_28,1 + 2 f_29,1
   + 3 f_30,1 <= 5
 R30: 3 f_0,0 + 2 f_1,0 + 3 f_3,0 + f_11,0 - s_30 <= 5
 R31: f_6,1 + 2 f_7,1 + f_11,3 + 2 f_14,3 + 2 f_21,3 + 2 f_24,3 + 2 f_31,1
   + 5 f_34,3 <= 5
 R32: 3 f_0,2 + 2 f_24,2 + 2 f_31,0 + 5 f_34,2 <= 2
 R33: f_11,2 + 2 f_14,2 + 2 f_21,2 + 4 f_25,2 + 5 f_38,2 <= 3
 R34: 3 f_0,1 + 2 f_1,1 + f_11,1 + 2 f_19,1 + 4 f_25,1 + 5 f_34,1
   + 5 f_38,1 <= 4
 R35: 2 f_1,2 + f_11,3 + 2 f_14,3 + 2 f_19,0 + 2 f_21,3 + 2 f_24,3
   + 4 f_25,0 + 4 f_25,3 + 4 f_25,4 + 2 f_31,1 + 5 f_34,3 + 5 f_38,0
   + 5 f_38,3 + 5 f_38,4 - s_35 <= 8
 R36: 2 f_14,4 + 2 f_21,4 + 2 f_24,4 + 5 f_34,0 - s_36 <= 4
 R37: 2 f_14,0 + 2 f_21,0 + 2 f_24,0 - s_37 <= 2
 R38: f_11,0 + 2 f_14,1 + 2 f_21,1 + 2 f_24,1 <= 2
 R39: 4 f_10,1 + 3 f_26,0 + 4 f_32,1 <= 8
 R40: 4 f_10,0 + 4 f_32,0 - s_40 <= 6
 R41: 2 f_14,1 + 2 f_21,1 + 3 f_23,1 + 2 f_24,1 + 3 f_36,0 + 3 f_36,1
   + 4 f_37,1 <= 10
 R42: f_4,1 + 3 f_23,0 + 4 f_32,0 + 3 f_36,2 + 4 f_37,0 - s_42 <= 10
 R43: 3 f_18,0 + 2 f_19,0 + 2 f_19,1 <= 8
 R44: 2 f_21,0 + 2 f_21,1 + 2 f_21,2 + 2 f_21,3 + 2 f_21,4 + 2 f_22,0
   <= 12
 R45: 2 f_7,4 + 3 f_23,1 + 5 f_28,1 + 5 f_28,4 + 2 f_29,1 + 3 f_30,1
   + 3 f_30,4 + 4 f_32,1 + 3 f_36,1 <= 5
 R46: 4 f_25,4 + 3 f_26,0 + 4 f_37,1 + 5 f_38,4 + 3 f_39,0 <= 10
 R47: 2 f_7,0 + 5 f_28,0 + 3 f_30,0 - s_47 <= 5
 R48: 4 f_2,2 + 2 f_7,2 + 5 f_28,2 + 3 f_30,2 <= 3
 R49: 2 f_7,3 + 2 f_24,0 + 2 f_24,1 + 5 f_28,3 + 3 f_30,3 + 3 f_36,0 <= 5
 R50: 3 f_33,0 <= 5
 R51: f_4,1 + 5 f_28,1 + 2 f_29,1 + 3 f_30,1 + 4 f_32,0 + 4 f_32,1
   + 3 f_33,0 <= 14
 R52: 3 f_3,2 + 2 f_7,4 + 5 f_28,4 + 3 f_30,4 + 3 f_36,1 + 3 f_36,2 <= 4
 R53: 4 f_37,0 + 5 f_38,0 + 5 f_38,2 + 5 f_38,3 - s_53 <= 8
 R54: 4 f_25,0 + 4 f_25,1 + 4 f_25,2 + 4 f_25,3 + 4 f_27,0 + 4 f_27,1
   + 5 f_38,1 <= 10
 R55: f_6,0 + 2 f_7,3 + 5 f_28,3 + 2 f_29,0 + 3 f_30,3 + 3 f_36,0 - s_55
   <= 5
 R56: 4 f_37,1 + 5 f_38,4 + 3 f_39,0 <= 8
 R57: <= 7
 R58: 3 f_0,2 + 2 f_1,2 + 3 f_3,1 + 2 f_24,2 + 2 f_24,3 + 4 f_25,3
   + 4 f_27,1 + 5 f_34,2 + 5 f_34,3 + 7 f_35,0 + 5 f_38,3 <= 10
 R59: 4 f_25,0 + 5 f_38,0 - s_59 <= 5
 R60: f_0,0 + f_0,1 + f_0,2 = 1
 R61: f_1,0 + f_1,1 + f_1,2 = 1
 R62: f_2,0 + f_2,1 + f_2,2 = 1
 R63: f_3,0 + f_3,1 + f_3,2 = 1
 R64: f_4,0 + f_4,1 = 1
 R65: f_5,0 = 1
 R66: f_6,0 + f_6,1 = 1
 R67: f_7,0 + f_7,1 + f_7,2 + f_7,3 + f_7,4 = 1
 R68: f_8,0 = 1
 R69: f_9,0 = 1
 R70: f_10,0 + f_10,1 = 1
 R71: f_11,0 + f_11,1 + f_11,2 + f_11,3 = 1
 R72: f_12,0 = 1
 R73: f_13,0 + f_13,1 = 1
 R74: f_14,0 + f_14,1 + f_14,2 + f_14,3 + f_14,4 = 1
 R75: f_15,0 = 1
 R76: f_16,0 + f_16,1 = 1
 R77: f_17,0 = 1
 R78: f_18,0 = 1
 R79: f_19,0 + f_19,1 = 1
 R80: f_20,0 = 1
 R81: f_21,0 + f_21,1 + f_21,2 + f_21,3 + f_21,4 = 1
 R82: f_22,0 = 1
 R83: f_23,0 + f_23,1 = 1
 R84: f_24,0 + f_24,1 + f_24,2 + f_24,3 + f_24,4 = 1
 R85: f_25,0 + f_25,1 + f_25,2 + f_25,3 + f_25,4 = 1
 R86: f_26,0 = 1
 R87: f_27,0 + f_27,1 = 1
 R88: f_28,0 + f_28,1 + f_28,2 + f_28,3 + f_28,4 = 1
 R89: f_29,0 + f_29,1 = 1
 R90: f_30,0 + f_30,1 + f_30,2 + f_30,3 + f_30,4 = 1
 R91: f_31,0 + f_31,1 = 1
 R92: f_32,0 + f_32,1 = 1
 R93: f_33,0 = 1
 R94: f_34,0 + f_34,1 + f_34,2 + f_34,3 = 1
 R95: f_35,0 = 1
 R96: f_36,0 + f_36,1 + f_36,2 = 1
 R97: f_37,0 + f_37,1 = 1
 R98: f_38,0 + f_38,1 + f_38,2 + f_38,3 + f_38,4 = 1
 R99: f_39,0 = 1
Bounds
End
